NAME : rbg050c.tw.10024.tour
COMMENT : Length = 10024
COMMENT : Found by LKH [Keld Helsgaun] Thu Jan 16 16:41:05 2020
TYPE : TOUR
DIMENSION : 51
TOUR_SECTION
1
3
2
4
5
6
7
25
24
21
12
17
16
18
8
9
10
11
20
19
13
22
31
14
43
28
15
36
27
23
33
42
29
30
32
35
34
26
37
39
38
44
41
45
47
48
40
51
50
49
46
-1
EOF
